154
1000000
19071
215590
5243
664315
615260
438942
313582
445015
425863
331585
410952
8142
108822
522892
198699
723979
86581
269056
567954
284909
177230
17539
260509
473037
290591
60536
405944
265719
181986
318467
575552
121954
439431
5400
543400
469942
107115
369884
668048
467970
135530
335685
182550
610817
284829
49479
693355
10041
276021
54920
153593
136337
337502
128327
33941
217099
356228
465943
265475
391298
102835
376
120802
219094
206056
445529
393869
154032
168842
585506
382567
208428
742766
109624
387620
369085
492346
389183
219819
316159
218085
143981
32015
72828
657088
41750
11650
14130
81931
549927
28297
307704
88777
159462
265207
28512
605179
637138
107317
366652
735231
15761
434958
86835
260502
105876
313814
361275
267275
241898
539956
454619
224635
163173
697748
328482
115137
116011
286194
84086
386077
167038
426103
348732
279877
57350
363238
93237
715091
403952
532030
195400
79298
286257
67317
607867
210173
342912
161081
309730
613008
251834
462073
321341
306645
102068
145825
466083
87632
617537
404076
715171
187700
24937
